Set parameter TokenServer to value "hpc-licenses.hpcc.usc.edu"
Set parameter TimeLimit to value 3600
Gurobi Optimizer version 9.5.1 build v9.5.1rc2 (linux64)
Thread count: 20 physical cores, 20 logical processors, using up to 20 threads
Optimize a model with 6007 rows, 4529 columns and 24534 nonzeros
Model fingerprint: 0xfb7fc338
Variable types: 4506 continuous, 23 integer (23 binary)
Coefficient statistics:
  Matrix range     [1e+00, 1e+00]
  Objective range  [1e-02, 1e+00]
  Bounds range     [1e+00, 1e+00]
  RHS range        [1e+00, 2e+02]
Presolve removed 1514 rows and 1511 columns
Presolve time: 0.05s
Presolved: 4493 rows, 3018 columns, 21993 nonzeros
Variable types: 2998 continuous, 20 integer (20 binary)
Found heuristic solution: objective 255.8293927

Root relaxation: objective 2.600465e+02, 3010 iterations, 0.11 seconds (0.18 work units)

    Nodes    |    Current Node    |     Objective Bounds      |     Work
 Expl Unexpl |  Obj  Depth IntInf | Incumbent    BestBd   Gap | It/Node Time

     0     0  260.04648    0    2  255.82939  260.04648  1.65%     -    0s
     0     0  259.99098    0    2  255.82939  259.99098  1.63%     -    0s
H    0     0                     259.4129260  259.70258  0.11%     -    0s
     0     0  259.41293    0    4  259.41293  259.41293  0.00%     -    0s

Cutting planes:
  Gomory: 2
  MIR: 33
  Flow cover: 2
  RLT: 6
  Relax-and-lift: 15

Explored 1 nodes (3092 simplex iterations) in 0.34 seconds (0.33 work units)
Thread count was 20 (of 20 available processors)

Solution count 2: 259.413 255.829 

Optimal solution found (tolerance 1.00e-04)
Best objective 2.594129259640e+02, best bound 2.594129259640e+02, gap 0.0000%



#########node  1
V1.9
#########node  2
0.0,1.0
#########node  3
1.0,0.0


Total Solving Time 0.6957979202270508
obj value 259.41292596398387
Policy Regret train (Sum) 1.515319924254638
Best Treatment Found train (%) 88.8
treatment classification acc train (%) 56.2
Policy Regret test (Sum) 145.29074060878332
Best Treatment Found test (%) 59.919999999999995
treatment classification acc test (%) 57.89
